p cnf 18 26
-2 8 13 0
-2 8 3 0
2 -8 0
2 -13 -3 0
-3 10 12 0
-3 10 4 0
3 -10 0
3 -12 -4 0
-4 9 11 0
-4 7 9 0
4 -9 0
4 -7 -11 0
-5 17 6 0
-5 16 17 0
5 -17 0
5 -16 -6 0
-6 14 15 0
-6 14 2 0
6 -14 0
6 -15 -2 0
-18 0
2 0
3 0
4 0
5 0
6 0

